c Arquivo convertido de dwt___66.mtx
p edge 66 127
e 1 2
e 2 3
e 2 11
e 2 12
e 3 4
e 3 12
e 3 13
e 4 5
e 4 13
e 4 14
e 5 6
e 5 14
e 5 15
e 6 7
e 6 15
e 6 16
e 7 8
e 7 16
e 7 17
e 8 9
e 8 17
e 8 18
e 9 10
e 9 18
e 9 19
e 10 19
e 10 20
e 10 22
e 11 12
e 12 13
e 13 14
e 14 15
e 15 16
e 16 17
e 17 18
e 18 19
e 19 20
e 20 22
e 20 38
e 21 65
e 22 23
e 22 38
e 23 24
e 23 38
e 23 39
e 24 25
e 24 39
e 24 40
e 25 26
e 25 40
e 25 41
e 26 27
e 26 41
e 26 42
e 27 28
e 27 42
e 27 43
e 28 43
e 28 44
e 28 58
e 28 64
e 29 30
e 29 45
e 29 65
e 29 66
e 30 31
e 30 45
e 30 46
e 31 32
e 31 46
e 31 47
e 32 33
e 32 47
e 32 48
e 33 34
e 33 48
e 33 49
e 34 35
e 34 49
e 34 50
e 35 36
e 35 50
e 35 51
e 36 51
e 36 52
e 36 53
e 37 65
e 37 66
e 38 39
e 39 40
e 40 41
e 41 42
e 42 43
e 43 44
e 44 64
e 45 46
e 45 66
e 46 47
e 47 48
e 48 49
e 49 50
e 50 51
e 51 52
e 52 53
e 52 59
e 53 54
e 53 59
e 54 55
e 54 59
e 54 60
e 55 56
e 55 60
e 55 61
e 56 57
e 56 61
e 56 62
e 57 58
e 57 62
e 57 63
e 58 63
e 58 64
e 59 60
e 60 61
e 61 62
e 62 63
e 63 64
e 65 66
